260700.29,17.79,19.48
245565.62,18.88,20.69
263991.16,17.57,19.24
255913.18,18.12,19.85
247826.12,18.71,20.5
254070.92,18.25,19.99
264516.35,17.53,19.2
255715.17,18.14,19.86
251034.46,18.47,20.23
252919.83,18.34,20.08
269642.69,17.2,18.84
259709.05,17.86,19.56
260158.85,17.83,19.53
262059.88,17.7,19.38
259911.38,17.84,19.54
253903.64,18.26,20.01
243597.1,19.04,20.85
257508.78,18.01,19.73
262743.23,17.65,19.33
262015.02,17.7,19.39
